8013
16, 50, 20, 23, 31, 18, 22, 1, 36, 39, 40, 37, 38, 48, 24, 5, 15, 6, 4, 43, 33, 51, 11, 52, 14, 13, 47, 26, 27, 28, 12, 25, 46, 44, 34, 35, 49, 32, 45, 19, 10, 9, 8, 41, 3, 17, 21, 42, 7, 2, 30, 29
